1502098
47,20,12,92,54,67,39,7,27,35,11,105,32,77,107,41,59,64,87,6,17,49,75,72,18,61,86,95,104,98,70,46,38,13,69,68,26,85,74,56,71,30,96,57,103,90,88,10,48,40,37,25,36,8,76,65,9,63,21,52,16,79,108,89,44,81,0,4,34,97,100,33,51,82,2,23,22,14,53,101,99,91,3,66,78,60,84,42,43,19,62,24,28,15,106,93,45,58,83,50,1,80,31,94,5,29,102,55,73,47